p cnf 8 27
-4 4 6 -2 0
2 4 0
-7 -3 -4 4 0
-6 3 0
8 -5 6 7 0
2 -4 0
-1 0
8 -8 0
-8 3 -2 6 0
3 7 -3 -5 0
6 0
4 0
-8 0
8 -4 7 0
2 6 0
-7 2 -4 4 0
-8 0
-4 5 0
2 0
8 0
-8 -4 -3 0
-1 0
8 -7 -5 6 0
-2 0
-5 -1 0
-5 -2 0
-4 5 0
